(set-info :origin "SVCOMP13 benchmarks generated by Arie Gurfinkel")
(set-info :status unsat)
(set-logic HORN)
(declare-fun cp-rel-entry () Bool)
(declare-fun cp-rel-__UFO__0
             (Real
              Real
              Real
              Real
              Real
              Real
              Real
              Real
              Real
              Real
              Real
              Real
              Real
              Real
              Real
              Real
              Real
              Real
              Real
              Real
              Bool
              Real
              Bool
              Real
              Real)
             Bool)
(declare-fun cp-rel-bb1.i.i.i.i74.i.i () Bool)
(declare-fun cp-rel-bb.i
             (Real
              Real
              Real
              Real
              Real
              Real
              Real
              Real
              Real
              Real
              Real
              Real
              Real
              Real
              Real
              Real
              Real
              Real
              Real)
             Bool)
(assert |cp-rel-entry|)
(assert (forall ((?A Real) (?B Real) (?C Real) (?D Real) (?E Real) (?F Real) (?G Real) (?H Real) (?I Real) (?J Real) (?K Real) (?L Real) (?M Real) (?N Real) (?O Real) (?P Real) (?Q Real) (?R Real) (?S Real) (?T Bool) )(let (($x138230 (|cp-rel-bb.i| ?A ?B ?C ?D ?E ?F ?G ?H ?I ?J ?K ?L ?M ?N ?O ?P ?Q ?R ?S)))
(let (($x401890 (= ?T true)))
(let (($x807698 (and |cp-rel-entry| (<= ?S 0.0) (>= ?R 0.0) (<= ?R 0.0) (>= ?Q 0.0) (<= ?Q 0.0) (>= ?P 0.0) (<= ?P 0.0) (>= ?O 0.0) (<= ?O 0.0) (>= ?N 0.0) (<= ?N 0.0) (>= ?M 0.0) (<= ?M 0.0) (>= ?L 456.0) (<= ?L 456.0) (>= ?K 123.0) (<= ?K 123.0) (>= ?J 0.0) (<= ?J 0.0) (>= ?I 0.0) (<= ?I 0.0) (>= ?H 0.0) (<= ?H 0.0) (>= ?G 0.0) (<= ?G 0.0) (>= ?F 0.0) (<= ?F 0.0) (>= ?E 0.0) (<= ?E 0.0) (>= ?D 0.0) (<= ?D 0.0) (>= ?C 0.0) (<= ?C 0.0) (>= ?B 0.0) (<= ?B 0.0) (>= ?A 0.0) (<= ?A 0.0) $x401890 (>= ?S 0.0))))
(=> $x807698 $x138230)))))
)
(assert (forall ((?A Real) (?B Real) (?C Real) (?D Real) (?E Real) (?F Real) (?G Real) (?H Real) (?I Real) (?J Real) (?K Real) (?L Real) (?M Real) (?N Real) (?O Real) (?P Real) (?Q Real) (?R Real) (?S Real) (?T Real) (?U Real) (?V Real) (?W Real) (?X Real) (?Y Real) (?Z Real) (?A1 Real) (?B1 Real) (?C1 Real) (?D1 Real) (?E1 Real) (?F1 Real) (?G1 Real) (?H1 Real) (?I1 Real) (?J1 Real) (?K1 Real) (?L1 Real) (?M1 Bool) (?N1 Bool) (?O1 Bool) (?P1 Bool) (?Q1 Bool) (?R1 Bool) (?S1 Bool) (?T1 Bool) (?U1 Bool) (?V1 Bool) (?W1 Bool) (?X1 Bool) (?Y1 Bool) (?Z1 Bool) (?A2 Bool) (?B2 Bool) (?C2 Bool) (?D2 Bool) (?E2 Bool) (?F2 Bool) (?G2 Bool) (?H2 Bool) (?I2 Bool) (?J2 Bool) (?K2 Bool) (?L2 Bool) (?M2 Bool) (?N2 Bool) (?O2 Bool) (?P2 Bool) (?Q2 Bool) (?R2 Bool) (?S2 Bool) (?T2 Bool) (?U2 Bool) (?V2 Bool) (?W2 Bool) (?X2 Bool) (?Y2 Bool) (?Z2 Bool) (?A3 Bool) (?B3 Bool) (?C3 Bool) (?D3 Bool) (?E3 Bool) (?F3 Bool) (?G3 Bool) (?H3 Bool) (?I3 Bool) (?J3 Bool) (?K3 Bool) (?L3 Bool) (?M3 Bool) (?N3 Bool) (?O3 Bool) (?P3 Bool) (?Q3 Bool) (?R3 Bool) (?S3 Bool) (?T3 Bool) (?U3 Bool) (?V3 Bool) (?W3 Bool) (?X3 Bool) (?Y3 Bool) (?Z3 Bool) (?A4 Bool) (?B4 Bool) (?C4 Bool) (?D4 Bool) (?E4 Bool) (?F4 Bool) (?G4 Bool) (?H4 Bool) (?I4 Bool) (?J4 Bool) (?K4 Bool) (?L4 Bool) (?M4 Bool) (?N4 Bool) (?O4 Real) (?P4 Real) (?Q4 Real) (?R4 Real) (?S4 Real) (?T4 Real) (?U4 Real) (?V4 Real) (?W4 Real) (?X4 Real) (?Y4 Real) (?Z4 Real) )(let (($x9101 (|cp-rel-bb.i| ?T ?U ?V ?W ?X ?Y ?Z ?A1 ?B1 ?C1 ?D1 ?E1 ?F1 ?G1 ?H1 ?I1 ?J1 ?K1 ?L1)))
(let (($x322670 (or (not ?Q1) (and ?M1 ?R1 ?S1))))
(let (($x897635 (or (not ?Q1) ?R1)))
(let (($x421871 (not ?T1)))
(let (($x481306 (or $x421871 (and ?Q1 ?U1 ?V1) (and ?M1 ?W1 (not ?S1)))))
(let (($x823138 (or $x421871 (and ?U1 (not ?W1)) (and ?W1 (not ?U1)))))
(let (($x113420 (not ?X1)))
(let (($x464404 (or $x113420 ?Y1)))
(let (($x389718 (not ?N2)))
(let (($x873328 (or $x389718 ?O2)))
(let (($x290199 (not ?U2)))
(let (($x582451 (or $x290199 ?V2)))
(let (($x142748 (>= ?K1 ?R)))
(let (($x623706 (<= ?K1 ?R)))
(let (($x414304 (>= ?J1 ?Q)))
(let (($x364672 (<= ?J1 ?Q)))
(let (($x419653 (>= ?I1 ?P)))
(let (($x110751 (<= ?I1 ?P)))
(let (($x369163 (>= ?G1 ?N)))
(let (($x74614 (<= ?G1 ?N)))
(let (($x246946 (>= ?E1 ?L)))
(let (($x845454 (<= ?E1 ?L)))
(let (($x279905 (>= ?D1 ?K)))
(let (($x398300 (<= ?D1 ?K)))
(let (($x146958 (>= ?C1 ?J)))
(let (($x256480 (<= ?C1 ?J)))
(let (($x417315 (>= ?B1 ?I)))
(let (($x858538 (<= ?B1 ?I)))
(let (($x368978 (>= ?A1 ?H)))
(let (($x304291 (<= ?A1 ?H)))
(let (($x628751 (>= ?Z ?G)))
(let (($x625604 (<= ?Z ?G)))
(let (($x138762 (>= ?Y ?F)))
(let (($x110606 (<= ?Y ?F)))
(let (($x729013 (>= ?X ?E)))
(let (($x625330 (<= ?X ?E)))
(let (($x121337 (>= ?W ?D)))
(let (($x11014 (<= ?W ?D)))
(let (($x46940 (>= ?V ?C)))
(let (($x148891 (<= ?V ?C)))
(let (($x447791 (>= ?U ?B)))
(let (($x294841 (<= ?U ?B)))
(let (($x900875 (>= ?T ?O4)))
(let (($x287180 (<= ?T ?O4)))
(let (($x908293 (and ?X1 $x287180 $x900875 $x294841 $x447791 $x148891 $x46940 $x11014 $x121337 $x625330 $x729013 $x110606 $x138762 $x625604 $x628751 $x304291 $x368978 $x858538 $x417315 $x256480 $x146958 $x398300 $x279905 $x845454 $x246946 (<= ?F1 2.0) (>= ?F1 2.0) $x74614 $x369163 (<= ?H1 456.0) (>= ?H1 456.0) $x110751 $x419653 $x364672 $x414304 $x623706 $x142748 (<= ?L1 1.0) (>= ?L1 1.0))))
(let (($x455996 (>= ?L1 ?S)))
(let (($x163034 (<= ?L1 ?S)))
(let (($x515916 (>= ?H1 ?O)))
(let (($x268287 (<= ?H1 ?O)))
(let (($x353102 (>= ?F1 ?M)))
(let (($x43024 (<= ?F1 ?M)))
(let (($x62353 (not ?E2)))
(let (($x178336 (and ?Z1 $x62353 $x287180 $x900875 $x294841 $x447791 $x148891 $x46940 $x11014 $x121337 $x625330 $x729013 $x110606 $x138762 $x625604 $x628751 $x304291 $x368978 $x858538 $x417315 $x256480 $x146958 $x398300 $x279905 $x845454 $x246946 $x43024 $x353102 $x74614 $x369163 $x268287 $x515916 $x110751 $x419653 $x364672 $x414304 (<= ?K1 1.0) (>= ?K1 1.0) $x163034 $x455996)))
(let (($x212708 (not ?L2)))
(let (($x303945 (and ?G2 $x212708 $x287180 $x900875 $x294841 $x447791 $x148891 $x46940 $x11014 $x121337 $x625330 $x729013 $x110606 $x138762 $x625604 $x628751 $x304291 $x368978 $x858538 $x417315 (<= ?C1 1.0) (>= ?C1 1.0) $x398300 $x279905 (<= ?E1 0.0) (>= ?E1 0.0) $x43024 $x353102 $x74614 $x369163 $x268287 $x515916 $x110751 $x419653 $x364672 $x414304 $x623706 $x142748 $x163034 $x455996)))
(let (($x68761 (not ?S2)))
(let (($x248397 (and ?N2 $x68761 $x287180 $x900875 $x294841 $x447791 $x148891 $x46940 $x11014 $x121337 $x625330 $x729013 $x110606 $x138762 $x625604 $x628751 $x304291 $x368978 (<= ?B1 1.0) (>= ?B1 1.0) $x256480 $x146958 $x398300 $x279905 $x845454 $x246946 $x43024 $x353102 (<= ?G1 1.0) (>= ?G1 1.0) $x268287 $x515916 (<= ?I1 123.0) (>= ?I1 123.0) $x364672 $x414304 $x623706 $x142748 $x163034 $x455996)))
(let (($x846655 (not ?Z2)))
(let (($x395130 (and ?U2 $x846655 $x287180 $x900875 $x294841 $x447791 $x148891 $x46940 $x11014 $x121337 $x625330 $x729013 $x110606 $x138762 $x625604 $x628751 (<= ?A1 1.0) (>= ?A1 1.0) $x858538 $x417315 $x256480 $x146958 $x398300 $x279905 $x845454 $x246946 $x43024 $x353102 $x74614 $x369163 $x268287 $x515916 $x110751 $x419653 $x364672 $x414304 $x623706 $x142748 $x163034 $x455996)))
(let (($x286768 (and ?B3 (not ?G3) $x287180 $x900875 $x294841 $x447791 $x148891 $x46940 $x11014 $x121337 $x625330 $x729013 $x110606 $x138762 (<= ?Z 1.0) (>= ?Z 1.0) $x304291 $x368978 $x858538 $x417315 $x256480 $x146958 $x398300 $x279905 $x845454 $x246946 $x43024 $x353102 $x74614 $x369163 $x268287 $x515916 $x110751 $x419653 (<= ?J1 3.0) (>= ?J1 3.0) $x623706 $x142748 $x163034 $x455996)))
(let (($x126470 (and ?I3 (not ?N3) $x287180 $x900875 $x294841 $x447791 $x148891 $x46940 $x11014 $x121337 $x625330 $x729013 (<= ?Y 1.0) (>= ?Y 1.0) $x625604 $x628751 $x304291 $x368978 $x858538 $x417315 $x256480 $x146958 $x398300 $x279905 (<= ?E1 666.0) (>= ?E1 666.0) $x43024 $x353102 $x74614 $x369163 $x268287 $x515916 $x110751 $x419653 $x364672 $x414304 $x623706 $x142748 $x163034 $x455996)))
(let (($x368333 (not ?U3)))
(let (($x6309 (and ?P3 $x368333 $x287180 $x900875 $x294841 $x447791 $x148891 $x46940 $x11014 $x121337 (<= ?X 1.0) (>= ?X 1.0) $x110606 $x138762 $x625604 $x628751 $x304291 $x368978 $x858538 $x417315 $x256480 $x146958 $x398300 $x279905 $x845454 $x246946 $x43024 $x353102 $x74614 $x369163 $x268287 $x515916 $x110751 $x419653 $x364672 $x414304 $x623706 $x142748 $x163034 $x455996)))
(let (($x595572 (not ?B4)))
(let (($x102041 (and ?W3 $x595572 $x287180 $x900875 $x294841 $x447791 $x148891 $x46940 (<= ?W 1.0) (>= ?W 1.0) $x625330 $x729013 $x110606 $x138762 $x625604 $x628751 $x304291 $x368978 $x858538 $x417315 $x256480 $x146958 $x398300 $x279905 $x845454 $x246946 $x43024 $x353102 $x74614 $x369163 $x268287 $x515916 $x110751 $x419653 $x364672 $x414304 $x623706 $x142748 $x163034 $x455996)))
(let (($x128964 (not ?I4)))
(let (($x858220 (and ?D4 $x128964 $x287180 $x900875 $x294841 $x447791 (<= ?V 1.0) (>= ?V 1.0) $x11014 $x121337 $x625330 $x729013 $x110606 $x138762 $x625604 $x628751 $x304291 $x368978 $x858538 $x417315 $x256480 $x146958 (<= ?D1 777.0) (>= ?D1 777.0) $x845454 $x246946 $x43024 $x353102 $x74614 $x369163 $x268287 $x515916 $x110751 $x419653 $x364672 $x414304 $x623706 $x142748 $x163034 $x455996)))
(let (($x753938 (and ?K4 (not ?N4) $x287180 $x900875 (<= ?U 1.0) (>= ?U 1.0) $x148891 $x46940 $x11014 $x121337 $x625330 $x729013 $x110606 $x138762 $x625604 $x628751 $x304291 $x368978 $x858538 $x417315 $x256480 $x146958 $x398300 $x279905 $x845454 $x246946 $x43024 $x353102 $x74614 $x369163 $x268287 $x515916 $x110751 $x419653 $x364672 $x414304 $x623706 $x142748 $x163034 $x455996)))
(let (($x929040 (|cp-rel-bb.i| ?A ?B ?C ?D ?E ?F ?G ?H ?I ?J ?K ?L ?M ?N ?O ?P ?Q ?R ?S)))
(let (($x220774 (and $x929040 (= ?M4 (= ?B 0.0)) (= ?I4 (= ?Y4 0.0)) (= ?F4 (= ?C 0.0)) (= ?B4 (= ?X4 0.0)) (= ?Y3 (= ?D 0.0)) (= ?U3 (= ?W4 0.0)) (= ?R3 (= ?E 0.0)) (= ?N3 (= ?V4 0.0)) (= ?K3 (= ?F 0.0)) (= ?G3 (= ?U4 0.0)) (= ?D3 (= ?G 0.0)) (= ?Z2 (= ?T4 0.0)) (= ?W2 (= ?H 0.0)) (= ?S2 (= ?S4 0.0)) (= ?P2 (= ?I 0.0)) (= ?L2 (= ?R4 0.0)) (= ?I2 (= ?J 0.0)) (= ?E2 (= ?Q4 0.0)) (= ?B2 (= ?R 0.0)) (= ?V1 (= ?P4 0.0)) (= ?S1 (= ?S 0.0)) (= ?O4 (+ 1.0 ?A)) (= ?P1 (not (<= ?A 3.0))) (or $x753938 $x858220 $x102041 $x6309 $x126470 $x286768 $x395130 $x248397 $x303945 $x178336 $x908293) (or (not ?K4) ?L4) (or (not ?K4) (and ?G4 ?L4 ?M4)) (or (not ?G4) (and ?H4 (not ?J4)) (and ?J4 (not ?H4))) (or (not ?G4) (and ?D4 ?H4 ?I4) (and ?Z3 ?J4 (not ?F4))) (or (not ?D4) ?E4) (or (not ?D4) (and ?Z3 ?E4 ?F4)) (or (not ?Z3) (and ?A4 (not ?C4)) (and ?C4 (not ?A4))) (or (not ?Z3) (and ?W3 ?A4 ?B4) (and ?S3 ?C4 (not ?Y3))) (or (not ?W3) ?X3) (or (not ?W3) (and ?S3 ?X3 ?Y3)) (or (not ?S3) (and ?T3 (not ?V3)) (and ?V3 (not ?T3))) (or (not ?S3) (and ?P3 ?T3 ?U3) (and ?L3 ?V3 (not ?R3))) (or (not ?P3) ?Q3) (or (not ?P3) (and ?L3 ?Q3 ?R3)) (or (not ?L3) (and ?M3 (not ?O3)) (and ?O3 (not ?M3))) (or (not ?L3) (and ?I3 ?M3 ?N3) (and ?E3 ?O3 (not ?K3))) (or (not ?I3) ?J3) (or (not ?I3) (and ?E3 ?J3 ?K3)) (or (not ?E3) (and ?F3 (not ?H3)) (and ?H3 (not ?F3))) (or (not ?E3) (and ?B3 ?F3 ?G3) (and ?X2 ?H3 (not ?D3))) (or (not ?B3) ?C3) (or (not ?B3) (and ?X2 ?C3 ?D3)) (or (not ?X2) (and ?Y2 (not ?A3)) (and ?A3 (not ?Y2))) (or (not ?X2) (and ?U2 ?Y2 ?Z2) (and ?Q2 ?A3 (not ?W2))) $x582451 (or $x290199 (and ?Q2 ?V2 ?W2)) (or (not ?Q2) (and ?R2 (not ?T2)) (and ?T2 (not ?R2))) (or (not ?Q2) (and ?N2 ?R2 ?S2) (and ?J2 ?T2 (not ?P2))) $x873328 (or $x389718 (and ?J2 ?O2 ?P2)) (or (not ?J2) (and ?K2 (not ?M2)) (and ?M2 (not ?K2))) (or (not ?J2) (and ?G2 ?K2 ?L2) (and ?C2 ?M2 (not ?I2))) (or (not ?G2) ?H2) (or (not ?G2) (and ?C2 ?H2 ?I2)) (or (not ?C2) (and ?D2 (not ?F2)) (and ?F2 (not ?D2))) (or (not ?C2) (and ?Z1 ?D2 ?E2) (and ?T1 ?F2 (not ?B2))) (or (not ?Z1) ?A2) (or (not ?Z1) (and ?T1 ?A2 ?B2)) $x464404 (or $x113420 (and ?Q1 ?Y1 (not ?V1))) $x823138 $x481306 $x897635 $x322670 (or (not ?M1) ?O1) (or (not ?M1) (and ?N1 ?O1 (not ?P1))) (= ?N4 (= ?Z4 0.0)))))
(=> $x220774 $x9101))))))))))))))))))))))))))))))))))))))))))))))))))))))))))))))))))))))))
)
(assert (forall ((?A Real) (?B Real) (?C Real) (?D Real) (?E Real) (?F Real) (?G Real) (?H Real) (?I Real) (?J Real) (?K Real) (?L Real) (?M Real) (?N Real) (?O Real) (?P Real) (?Q Real) (?R Real) (?S Real) (?T Bool) (?U Bool) (?V Bool) (?W Bool) (?X Bool) (?Y Bool) (?Z Bool) (?A1 Bool) (?B1 Bool) (?C1 Bool) (?D1 Bool) (?E1 Bool) (?F1 Bool) (?G1 Bool) (?H1 Bool) (?I1 Bool) (?J1 Bool) (?K1 Bool) (?L1 Bool) (?M1 Bool) (?N1 Bool) (?O1 Bool) (?P1 Bool) (?Q1 Bool) (?R1 Bool) (?S1 Bool) (?T1 Bool) (?U1 Bool) (?V1 Bool) (?W1 Bool) (?X1 Bool) (?Y1 Bool) (?Z1 Bool) (?A2 Bool) (?B2 Bool) (?C2 Bool) (?D2 Bool) (?E2 Bool) (?F2 Bool) (?G2 Bool) (?H2 Bool) (?I2 Bool) (?J2 Bool) (?K2 Bool) (?L2 Bool) (?M2 Bool) (?N2 Bool) (?O2 Bool) (?P2 Bool) (?Q2 Bool) (?R2 Bool) (?S2 Bool) (?T2 Bool) (?U2 Bool) (?V2 Bool) (?W2 Bool) (?X2 Bool) (?Y2 Bool) (?Z2 Bool) (?A3 Bool) (?B3 Bool) (?C3 Bool) (?D3 Bool) (?E3 Bool) (?F3 Bool) (?G3 Bool) (?H3 Bool) (?I3 Bool) (?J3 Bool) (?K3 Bool) (?L3 Bool) (?M3 Bool) (?N3 Bool) (?O3 Bool) (?P3 Bool) (?Q3 Bool) (?R3 Bool) (?S3 Bool) (?T3 Real) (?U3 Real) (?V3 Real) (?W3 Real) (?X3 Real) (?Y3 Real) (?Z3 Real) (?A4 Real) (?B4 Real) (?C4 Real) (?D4 Real) (?E4 Real) (?F4 Real) (?G4 Bool) (?H4 Real) (?I4 Bool) (?J4 Real) (?K4 Real) (?L4 Bool) (?M4 Bool) (?N4 Bool) (?O4 Bool) (?P4 Bool) (?Q4 Bool) (?R4 Bool) (?S4 Bool) (?T4 Bool) (?U4 Bool) (?V4 Bool) (?W4 Bool) (?X4 Bool) (?Y4 Bool) (?Z4 Bool) (?A5 Bool) (?B5 Bool) (?C5 Bool) (?D5 Bool) (?E5 Bool) (?F5 Bool) (?G5 Bool) (?H5 Bool) (?I5 Bool) (?J5 Bool) (?K5 Bool) (?L5 Bool) (?M5 Bool) (?N5 Bool) (?O5 Bool) (?P5 Bool) (?Q5 Bool) (?R5 Bool) (?S5 Bool) (?T5 Bool) (?U5 Real) (?V5 Bool) (?W5 Bool) (?X5 Bool) (?Y5 Bool) (?Z5 Bool) (?A6 Bool) (?B6 Bool) (?C6 Bool) (?D6 Bool) (?E6 Real) (?F6 Bool) (?G6 Bool) (?H6 Bool) (?I6 Bool) (?J6 Bool) (?K6 Bool) (?L6 Bool) (?M6 Bool) (?N6 Bool) (?O6 Real) (?P6 Real) (?Q6 Real) (?R6 Real) (?S6 Bool) (?T6 Bool) (?U6 Bool) (?V6 Bool) (?W6 Bool) (?X6 Bool) (?Y6 Bool) (?Z6 Bool) (?A7 Bool) (?B7 Real) (?C7 Bool) (?D7 Bool) (?E7 Bool) (?F7 Real) (?G7 Bool) (?H7 Bool) (?I7 Bool) (?J7 Bool) (?K7 Bool) (?L7 Bool) (?M7 Bool) (?N7 Bool) (?O7 Bool) (?P7 Real) (?Q7 Bool) (?R7 Real) )(let (($x368551 (|cp-rel-__UFO__0| ?A ?B ?C ?D ?E ?F ?G ?H ?I ?J ?K ?L ?M ?N ?O ?P ?Q ?R ?S ?F4 ?G4 ?H4 ?I4 ?J4 ?K4)))
(let (($x421871 (not ?L4)))
(let (($x14674 (or $x421871 (and ?P3 ?M4 ?S3) (and ?L3 ?N4 (not ?R3)) (and ?U ?O4 ?W))))
(let (($x365356 (or $x421871 (and ?M4 (not ?N4) (not ?O4)) (and ?N4 (not ?M4) (not ?O4)) (and ?O4 (not ?M4) (not ?N4)))))
(let (($x113420 (not ?P4)))
(let (($x464404 (or $x113420 ?Q4)))
(let (($x331107 (and ?L4 ?Y4 ?R4 (<= ?J4 ?H4) (>= ?J4 ?H4) (<= ?K4 ?F4) (>= ?K4 ?F4))))
(let (($x552953 (and ?P4 ?X4 ?U4 (<= ?J4 ?H4) (>= ?J4 ?H4) (<= ?K4 ?F4) (>= ?K4 ?F4))))
(let (($x30026 (and ?S4 ?W4 (<= ?J4 0.0) (>= ?J4 0.0) (<= ?K4 0.0) (>= ?K4 0.0))))
(let (($x353278 (not ?V4)))
(let (($x77744 (or $x353278 (and ?W4 (not ?X4) (not ?Y4)) (and ?X4 (not ?W4) (not ?Y4)) (and ?Y4 (not ?W4) (not ?X4)))))
(let (($x389718 (not ?F5)))
(let (($x873328 (or $x389718 ?G5)))
(let (($x68761 (not ?K5)))
(let (($x139986 (or $x68761 ?L5)))
(let (($x290199 (not ?M5)))
(let (($x582451 (or $x290199 ?N5)))
(let (($x846655 (not ?R5)))
(let (($x226584 (or $x846655 (and ?F5 ?S5 ?T5 (<= ?U5 ?K) (>= ?U5 ?K)) (and ?M5 ?V5 ?W5 (<= ?U5 ?L) (>= ?U5 ?L)))))
(let (($x624000 (not ?X5)))
(let (($x141530 (or (not ?B6) (and ?R5 ?C6 (not ?D6) (<= ?E6 ?U5) (>= ?E6 ?U5)) (and ?P5 ?F6 ?A6 (<= ?E6 789.0) (>= ?E6 789.0)))))
(let (($x430420 (>= ?Q6 ?R6)))
(let (($x227159 (<= ?Q6 ?R6)))
(let (($x76476 (>= ?O6 ?P6)))
(let (($x327231 (<= ?O6 ?P6)))
(let (($x193236 (not ?T5)))
(let (($x798329 (and ?J6 ?S6 (<= ?O6 0.0) (>= ?O6 0.0) (<= ?Q6 0.0) (>= ?Q6 0.0))))
(let (($x368333 (not ?M6)))
(let (($x445751 (or $x368333 (and ?X5 ?N6 $x327231 $x76476 $x227159 $x430420) $x798329 (and ?G6 ?T6 ?L6 $x327231 $x76476 $x227159 $x430420) (and ?B6 ?U6 ?I6 $x327231 $x76476 $x227159 $x430420) (and ?R5 ?V6 ?D6 $x327231 $x76476 $x227159 $x430420) (and ?F5 ?W6 $x193236 $x327231 $x76476 $x227159 $x430420))))
(let (($x441022 (or $x368333 (and ?N6 (not ?S6) (not ?T6) (not ?U6) (not ?V6) (not ?W6)) (and ?S6 (not ?N6) (not ?T6) (not ?U6) (not ?V6) (not ?W6)) (and ?T6 (not ?N6) (not ?S6) (not ?U6) (not ?V6) (not ?W6)) (and ?U6 (not ?N6) (not ?S6) (not ?T6) (not ?V6) (not ?W6)) (and ?V6 (not ?N6) (not ?S6) (not ?T6) (not ?U6) (not ?W6)) (and ?W6 (not ?N6) (not ?S6) (not ?T6) (not ?U6) (not ?V6)))))
(let (($x386600 (|cp-rel-bb.i| ?A ?B ?C ?D ?E ?F ?G ?H ?I ?J ?K ?L ?M ?N ?O ?P ?Q ?R ?S)))
(let (($x452778 (and $x386600 (= ?Q7 (= ?O6 0.0)) (= ?Z6 (= ?P7 0.0)) (= ?P7 (ite ?O7 ?Q 0.0)) (= ?O7 (= ?Q 2.0)) (= ?L6 (or ?N7 ?L7)) (= ?N7 (or ?M7 ?K7)) (= ?M7 (not (= ?E6 ?R6))) (= ?L7 (= ?E6 0.0)) (= ?K7 (= ?R6 0.0)) (= ?D6 (= ?U5 0.0)) (= ?A6 (= ?Q 3.0)) (= ?W5 (= ?Q 2.0)) (= ?O5 (not (<= 3.0 ?Q))) (= ?T5 (= ?Q 1.0)) (= ?H5 (not (<= 2.0 ?Q))) (= ?E5 (and ?I6 ?J7)) (= ?I6 (= ?P6 0.0)) (= ?J7 (not ?G4)) (= ?P6 (ite ?I7 ?J4 1.0)) (= ?R6 (ite ?I7 ?K4 ?P)) (= ?I7 (or ?H7 ?G7)) (= ?H7 (= ?P 0.0)) (= ?G7 (not (= ?Q ?N))) (= ?F7 (ite ?E7 1.0 0.0)) (= ?E7 (= ?J4 0.0)) (= ?B5 (= ?Q 0.0)) (= ?U4 (or ?D7 ?G4)) (= ?D7 (or ?C7 ?I4)) (= ?C7 (not (= ?L ?F4))) (= ?R4 (or ?G4 ?I4)) (= ?I4 (= ?L 0.0)) (= ?B7 (ite ?G4 1.0 0.0)) (= ?G4 (= ?F4 0.0)) (= ?F4 (ite ?A7 ?O 0.0)) (= ?A7 (= ?M 2.0)) (= ?S3 (= ?E4 0.0)) (= ?R3 (= ?B 0.0)) (= ?N3 (= ?D4 0.0)) (= ?K3 (= ?C 0.0)) (= ?G3 (= ?C4 0.0)) (= ?D3 (= ?D 0.0)) (= ?Z2 (= ?B4 0.0)) (= ?W2 (= ?E 0.0)) (= ?S2 (= ?A4 0.0)) (= ?P2 (= ?F 0.0)) (= ?L2 (= ?Z3 0.0)) (= ?I2 (= ?G 0.0)) (= ?E2 (= ?Y3 0.0)) (= ?B2 (= ?H 0.0)) (= ?X1 (= ?X3 0.0)) (= ?U1 (= ?I 0.0)) (= ?Q1 (= ?W3 0.0)) (= ?N1 (= ?J 0.0)) (= ?J1 (= ?V3 0.0)) (= ?G1 (= ?R 0.0)) (= ?C1 (= ?U3 0.0)) (= ?Z (= ?S 0.0)) (= ?T3 (+ 1.0 ?A)) (= ?W (not (<= ?A 3.0))) (or ?X6 (and ?M6 ?Z6) (and ?V4 ?B5)) (or (not ?X6) ?Y6) (or (not ?X6) (and ?M6 ?Y6 (not ?Z6))) $x441022 $x445751 (or (not ?J6) ?K6) (or (not ?J6) (and ?G6 ?K6 (not ?L6))) (or (not ?G6) ?H6) (or (not ?G6) (and ?B6 ?H6 (not ?I6))) (or (not ?B6) (and ?C6 (not ?F6)) (and ?F6 (not ?C6))) $x141530 (or $x624000 (and ?Y5 (not ?Z5)) (and ?Z5 (not ?Y5))) (or $x624000 (and ?M5 ?Y5 (not ?W5)) (and ?P5 ?Z5 (not ?A6))) (or $x846655 (and ?S5 (not ?V5)) (and ?V5 (not ?S5))) $x226584 (or (not ?P5) ?Q5) (or (not ?P5) (and ?K5 ?Q5 (not ?O5))) $x582451 (or $x290199 (and ?K5 ?N5 ?O5)) $x139986 (or $x68761 (and ?I5 ?L5)) (or (not ?I5) ?J5) (or (not ?I5) (and ?C5 ?J5 (not ?H5))) $x873328 (or $x389718 (and ?C5 ?G5 ?H5)) (or (not ?C5) ?D5) (or (not ?C5) (and ?Z4 ?D5 (not ?E5))) (or (not ?Z4) ?A5) (or (not ?Z4) (and ?V4 ?A5 (not ?B5))) $x77744 (or $x353278 $x30026 $x552953 $x331107) (or (not ?S4) ?T4) (or (not ?S4) (and ?P4 ?T4 (not ?U4))) $x464404 (or $x113420 (and ?L4 ?Q4 (not ?R4))) $x365356 $x14674 (or (not ?P3) ?Q3) (or (not ?P3) (and ?L3 ?Q3 ?R3)) (or (not ?L3) (and ?M3 (not ?O3)) (and ?O3 (not ?M3))) (or (not ?L3) (and ?I3 ?M3 ?N3) (and ?E3 ?O3 (not ?K3))) (or (not ?I3) ?J3) (or (not ?I3) (and ?E3 ?J3 ?K3)) (or (not ?E3) (and ?F3 (not ?H3)) (and ?H3 (not ?F3))) (or (not ?E3) (and ?B3 ?F3 ?G3) (and ?X2 ?H3 (not ?D3))) (or (not ?B3) ?C3) (or (not ?B3) (and ?X2 ?C3 ?D3)) (or (not ?X2) (and ?Y2 (not ?A3)) (and ?A3 (not ?Y2))) (or (not ?X2) (and ?U2 ?Y2 ?Z2) (and ?Q2 ?A3 (not ?W2))) (or (not ?U2) ?V2) (or (not ?U2) (and ?Q2 ?V2 ?W2)) (or (not ?Q2) (and ?R2 (not ?T2)) (and ?T2 (not ?R2))) (or (not ?Q2) (and ?N2 ?R2 ?S2) (and ?J2 ?T2 (not ?P2))) (or (not ?N2) ?O2) (or (not ?N2) (and ?J2 ?O2 ?P2)) (or (not ?J2) (and ?K2 (not ?M2)) (and ?M2 (not ?K2))) (or (not ?J2) (and ?G2 ?K2 ?L2) (and ?C2 ?M2 (not ?I2))) (or (not ?G2) ?H2) (or (not ?G2) (and ?C2 ?H2 ?I2)) (or (not ?C2) (and ?D2 (not ?F2)) (and ?F2 (not ?D2))) (or (not ?C2) (and ?Z1 ?D2 ?E2) (and ?V1 ?F2 (not ?B2))) (or (not ?Z1) ?A2) (or (not ?Z1) (and ?V1 ?A2 ?B2)) (or (not ?V1) (and ?W1 (not ?Y1)) (and ?Y1 (not ?W1))) (or (not ?V1) (and ?S1 ?W1 ?X1) (and ?O1 ?Y1 (not ?U1))) (or (not ?S1) ?T1) (or (not ?S1) (and ?O1 ?T1 ?U1)) (or (not ?O1) (and ?P1 (not ?R1)) (and ?R1 (not ?P1))) (or (not ?O1) (and ?L1 ?P1 ?Q1) (and ?H1 ?R1 (not ?N1))) (or (not ?L1) ?M1) (or (not ?L1) (and ?H1 ?M1 ?N1)) (or (not ?H1) (and ?I1 (not ?K1)) (and ?K1 (not ?I1))) (or (not ?H1) (and ?E1 ?I1 ?J1) (and ?A1 ?K1 (not ?G1))) (or (not ?E1) ?F1) (or (not ?E1) (and ?A1 ?F1 ?G1)) (or (not ?A1) (and ?B1 (not ?D1)) (and ?D1 (not ?B1))) (or (not ?A1) (and ?X ?B1 ?C1) (and ?T ?D1 (not ?Z))) (or (not ?X) ?Y) (or (not ?X) (and ?T ?Y ?Z)) (or (not ?T) ?V) (or (not ?T) (and ?U ?V (not ?W))) (= ?R7 (ite ?Q7 1.0 0.0)))))
(=> $x452778 $x368551))))))))))))))))))))))))))))))))))
)
(assert (forall ((?A Real) (?B Bool) (?C Real) (?D Bool) (?E Real) (?F Real) (?G Real) (?H Real) (?I Real) (?J Real) (?K Real) (?L Real) (?M Real) (?N Real) (?O Real) (?P Real) (?Q Real) (?R Real) (?S Real) (?T Real) (?U Real) (?V Real) (?W Real) (?X Real) (?Y Real) (?Z Bool) )(let (($x531568 (|cp-rel-__UFO__0| ?G ?H ?I ?J ?K ?L ?M ?N ?O ?P ?Q ?R ?S ?T ?U ?V ?W ?X ?Y ?A ?B ?C ?D ?E ?F)))
(=> (and $x531568 (= ?Z true)) $x531568)))
)
(assert (forall ((?A Real) (?B Real) (?C Real) (?D Real) (?E Real) (?F Real) (?G Real) (?H Real) (?I Real) (?J Real) (?K Real) (?L Real) (?M Real) (?N Real) (?O Real) (?P Real) (?Q Real) (?R Real) (?S Real) (?T Bool) (?U Bool) (?V Bool) (?W Bool) (?X Bool) (?Y Bool) (?Z Bool) (?A1 Bool) (?B1 Bool) (?C1 Bool) (?D1 Bool) (?E1 Bool) (?F1 Bool) (?G1 Bool) (?H1 Bool) (?I1 Bool) (?J1 Bool) (?K1 Bool) (?L1 Bool) (?M1 Bool) (?N1 Bool) (?O1 Bool) (?P1 Bool) (?Q1 Bool) (?R1 Bool) (?S1 Bool) (?T1 Bool) (?U1 Bool) (?V1 Bool) (?W1 Bool) (?X1 Bool) (?Y1 Bool) (?Z1 Bool) (?A2 Bool) (?B2 Bool) (?C2 Bool) (?D2 Bool) (?E2 Bool) (?F2 Bool) (?G2 Bool) (?H2 Bool) (?I2 Bool) (?J2 Bool) (?K2 Bool) (?L2 Bool) (?M2 Bool) (?N2 Bool) (?O2 Bool) (?P2 Bool) (?Q2 Bool) (?R2 Bool) (?S2 Bool) (?T2 Bool) (?U2 Bool) (?V2 Bool) (?W2 Bool) (?X2 Bool) (?Y2 Bool) (?Z2 Bool) (?A3 Bool) (?B3 Bool) (?C3 Bool) (?D3 Bool) (?E3 Bool) (?F3 Bool) (?G3 Bool) (?H3 Bool) (?I3 Bool) (?J3 Bool) (?K3 Bool) (?L3 Bool) (?M3 Bool) (?N3 Bool) (?O3 Bool) (?P3 Bool) (?Q3 Bool) (?R3 Bool) (?S3 Bool) (?T3 Real) (?U3 Real) (?V3 Real) (?W3 Real) (?X3 Real) (?Y3 Real) (?Z3 Real) (?A4 Real) (?B4 Real) (?C4 Real) (?D4 Real) (?E4 Real) (?F4 Real) (?G4 Bool) (?H4 Real) (?I4 Bool) (?J4 Real) (?K4 Real) (?L4 Bool) (?M4 Bool) (?N4 Bool) (?O4 Bool) (?P4 Bool) (?Q4 Bool) (?R4 Bool) (?S4 Bool) (?T4 Bool) (?U4 Bool) (?V4 Bool) (?W4 Bool) (?X4 Bool) (?Y4 Bool) (?Z4 Bool) (?A5 Bool) (?B5 Bool) (?C5 Bool) (?D5 Bool) (?E5 Real) (?F5 Real) (?G5 Bool) (?H5 Real) (?I5 Bool) (?J5 Bool) (?K5 Bool) (?L5 Real) (?M5 Bool) (?N5 Bool) (?O5 Bool) (?P5 Bool) )(let (($x322670 (or (not ?G2) (and ?C2 ?H2 ?I2))))
(let (($x897635 (or (not ?G2) ?H2)))
(let (($x421871 (not ?J2)))
(let (($x481306 (or $x421871 (and ?G2 ?K2 ?L2) (and ?C2 ?M2 (not ?I2)))))
(let (($x823138 (or $x421871 (and ?K2 (not ?M2)) (and ?M2 (not ?K2)))))
(let (($x113420 (not ?N2)))
(let (($x464404 (or $x113420 ?O2)))
(let (($x68761 (not ?I3)))
(let (($x139986 (or $x68761 ?J3)))
(let (($x184021 (not ?L4)))
(let (($x41783 (or $x184021 (and ?P3 ?M4 ?S3) (and ?L3 ?N4 (not ?R3)) (and ?U ?O4 ?W))))
(let (($x97898 (or $x184021 (and ?M4 (not ?N4) (not ?O4)) (and ?N4 (not ?M4) (not ?O4)) (and ?O4 (not ?M4) (not ?N4)))))
(let (($x576962 (and ?L4 ?Y4 ?R4 (<= ?J4 ?H4) (>= ?J4 ?H4) (<= ?K4 ?F4) (>= ?K4 ?F4))))
(let (($x352120 (and ?P4 ?X4 ?U4 (<= ?J4 ?H4) (>= ?J4 ?H4) (<= ?K4 ?F4) (>= ?K4 ?F4))))
(let (($x101822 (and ?S4 ?W4 (<= ?J4 0.0) (>= ?J4 0.0) (<= ?K4 0.0) (>= ?K4 0.0))))
(let (($x606282 (not ?V4)))
(let (($x225733 (or $x606282 (and ?W4 (not ?X4) (not ?Y4)) (and ?X4 (not ?W4) (not ?Y4)) (and ?Y4 (not ?W4) (not ?X4)))))
(let (($x602873 (|cp-rel-bb.i| ?A ?B ?C ?D ?E ?F ?G ?H ?I ?J ?K ?L ?M ?N ?O ?P ?Q ?R ?S)))
(let (($x414269 (and $x602873 (= ?D5 (= ?E5 0.0)) (= ?P5 (not ?G4)) (= ?E5 (ite ?O5 ?J4 1.0)) (= ?F5 (ite ?O5 ?K4 ?P)) (= ?O5 (or ?N5 ?M5)) (= ?N5 (= ?P 0.0)) (= ?M5 (not (= ?Q ?N))) (= ?L5 (ite ?K5 1.0 0.0)) (= ?K5 (= ?J4 0.0)) (= ?B5 (= ?Q 0.0)) (= ?U4 (or ?J5 ?G4)) (= ?J5 (or ?I5 ?I4)) (= ?I5 (not (= ?L ?F4))) (= ?R4 (or ?G4 ?I4)) (= ?I4 (= ?L 0.0)) (= ?H5 (ite ?G4 1.0 0.0)) (= ?G4 (= ?F4 0.0)) (= ?F4 (ite ?G5 ?O 0.0)) (= ?G5 (= ?M 2.0)) (= ?S3 (= ?E4 0.0)) (= ?R3 (= ?B 0.0)) (= ?N3 (= ?D4 0.0)) (= ?K3 (= ?C 0.0)) (= ?G3 (= ?C4 0.0)) (= ?D3 (= ?D 0.0)) (= ?Z2 (= ?B4 0.0)) (= ?W2 (= ?E 0.0)) (= ?S2 (= ?A4 0.0)) (= ?P2 (= ?F 0.0)) (= ?L2 (= ?Z3 0.0)) (= ?I2 (= ?G 0.0)) (= ?E2 (= ?Y3 0.0)) (= ?B2 (= ?H 0.0)) (= ?X1 (= ?X3 0.0)) (= ?U1 (= ?I 0.0)) (= ?Q1 (= ?W3 0.0)) (= ?N1 (= ?J 0.0)) (= ?J1 (= ?V3 0.0)) (= ?G1 (= ?R 0.0)) (= ?C1 (= ?U3 0.0)) (= ?Z (= ?S 0.0)) (= ?T3 (+ 1.0 ?A)) (= ?W (not (<= ?A 3.0))) (= ?C5 true) (= ?Z4 true) (or (not ?Z4) ?A5) (or (not ?Z4) (and ?V4 ?A5 (not ?B5))) $x225733 (or $x606282 $x101822 $x352120 $x576962) (or (not ?S4) ?T4) (or (not ?S4) (and ?P4 ?T4 (not ?U4))) (or (not ?P4) ?Q4) (or (not ?P4) (and ?L4 ?Q4 (not ?R4))) $x97898 $x41783 (or (not ?P3) ?Q3) (or (not ?P3) (and ?L3 ?Q3 ?R3)) (or (not ?L3) (and ?M3 (not ?O3)) (and ?O3 (not ?M3))) (or (not ?L3) (and ?I3 ?M3 ?N3) (and ?E3 ?O3 (not ?K3))) $x139986 (or $x68761 (and ?E3 ?J3 ?K3)) (or (not ?E3) (and ?F3 (not ?H3)) (and ?H3 (not ?F3))) (or (not ?E3) (and ?B3 ?F3 ?G3) (and ?X2 ?H3 (not ?D3))) (or (not ?B3) ?C3) (or (not ?B3) (and ?X2 ?C3 ?D3)) (or (not ?X2) (and ?Y2 (not ?A3)) (and ?A3 (not ?Y2))) (or (not ?X2) (and ?U2 ?Y2 ?Z2) (and ?Q2 ?A3 (not ?W2))) (or (not ?U2) ?V2) (or (not ?U2) (and ?Q2 ?V2 ?W2)) (or (not ?Q2) (and ?R2 (not ?T2)) (and ?T2 (not ?R2))) (or (not ?Q2) (and ?N2 ?R2 ?S2) (and ?J2 ?T2 (not ?P2))) $x464404 (or $x113420 (and ?J2 ?O2 ?P2)) $x823138 $x481306 $x897635 $x322670 (or (not ?C2) (and ?D2 (not ?F2)) (and ?F2 (not ?D2))) (or (not ?C2) (and ?Z1 ?D2 ?E2) (and ?V1 ?F2 (not ?B2))) (or (not ?Z1) ?A2) (or (not ?Z1) (and ?V1 ?A2 ?B2)) (or (not ?V1) (and ?W1 (not ?Y1)) (and ?Y1 (not ?W1))) (or (not ?V1) (and ?S1 ?W1 ?X1) (and ?O1 ?Y1 (not ?U1))) (or (not ?S1) ?T1) (or (not ?S1) (and ?O1 ?T1 ?U1)) (or (not ?O1) (and ?P1 (not ?R1)) (and ?R1 (not ?P1))) (or (not ?O1) (and ?L1 ?P1 ?Q1) (and ?H1 ?R1 (not ?N1))) (or (not ?L1) ?M1) (or (not ?L1) (and ?H1 ?M1 ?N1)) (or (not ?H1) (and ?I1 (not ?K1)) (and ?K1 (not ?I1))) (or (not ?H1) (and ?E1 ?I1 ?J1) (and ?A1 ?K1 (not ?G1))) (or (not ?E1) ?F1) (or (not ?E1) (and ?A1 ?F1 ?G1)) (or (not ?A1) (and ?B1 (not ?D1)) (and ?D1 (not ?B1))) (or (not ?A1) (and ?X ?B1 ?C1) (and ?T ?D1 (not ?Z))) (or (not ?X) ?Y) (or (not ?X) (and ?T ?Y ?Z)) (or (not ?T) ?V) (or (not ?T) (and ?U ?V (not ?W))) (= ?C5 (and ?D5 ?P5)))))
(=> $x414269 |cp-rel-bb1.i.i.i.i74.i.i|)))))))))))))))))))))
)
(assert (not cp-rel-bb1.i.i.i.i74.i.i))
(check-sat)
